20	5
0	7	4	3	2	1	5	6	7
1	1	17
2	2	12	10
3	1	10
4	2	9	11
5	1	14
6	1	11
7	4	17	9	8	18
8	2	15	13
9	1	15
10	1	18
11	2	19	18
12	4	11	13	20	15
13	1	21
14	1	21
15	1	21
16	1	21
17	1	21
18	1	21
19	1	21
20	1	21
21	0
0	0	0	0	0	0	0
1	9	1	3	2	5	2
2	5	3	1	2	3	3
3	5	4	4	4	4	5
4	3	4	3	3	5	4
5	10	2	4	2	2	3
6	8	3	2	4	1	2
7	7	5	2	1	3	2
8	8	2	2	2	5	2
9	5	4	1	3	1	4
10	7	5	2	4	3	3
11	7	3	5	4	3	4
12	6	4	5	2	5	3
13	6	5	5	1	3	1
14	5	4	4	2	1	2
15	3	1	3	3	3	3
16	9	4	3	4	5	4
17	9	3	2	2	2	3
18	6	2	3	4	1	1
19	10	5	1	3	2	5
20	8	3	3	2	1	3
21	0	0	0	0	0	0
14	12	12	14	13
